Route #0: 0 1 2 3 4 5 6 7 8 9 10 11 12 13 14 15 16 
Route #1: 0 1 2 3 4 5 6 7 8 9 10 11 12 13 14 15 16 17 18 19 20 21 22 23 
Route #2: 0 1 2 3 4 5 6 7 8 9 10 11 12 13 14 15 16 17 18 19 20 21 22 23 
Route #3: 0 1 2 3 4 5 
cost 241.974
